Problem:    
Rows:       68
Columns:    29 (20 integer, 20 binary)
Non-zeros:  206
Status:     INTEGER OPTIMAL
Objective:  value = 7.085 (MINimum)

   No.   Row name        Activity     Lower bound   Upper bound
------ ------------    ------------- ------------- -------------
     1 r.5                   1007.08             0               
     2 r.6                  -992.915      -999.679               
     3 r.7                     7.085             0               
     4 r.8                     7.085      -998.861               
     5 r.9                   1007.08             0               
     6 r.10                 -993.236      -993.353               
     7 r.11                    7.085             0               
     8 r.12                    7.085      -996.373               
     9 r.13                    7.085             0               
    10 r.14                    7.085      -977.948               
    11 r.15                  1007.08             0               
    12 r.16                 -992.915      -993.087               
    13 r.17                  1007.08             0               
    14 r.18                 -999.883      -999.883               
    15 r.19                    7.085             0               
    16 r.20                   0.1175      -998.841               
    17 r.21                        1             1             = 
    18 r.22                        1             1             = 
    19 r.23                        1             1             = 
    20 r.24                        1             1             = 
    21 r.25                        2             2               
    22 r.26                       -2         -1001               
    23 r.27                  -0.3208      -993.353               
    24 r.28                     1000             2               
    25 r.29                    -1000         -1001               
    26 r.30                     2000      -996.373               
    27 r.31                     1001             2               
    28 r.32                    -1001         -1001               
    29 r.33                     2000      -977.948               
    30 r.34                     1001             2               
    31 r.35                    -1001         -1001               
    32 r.36                     2000      -993.087               
    33 r.37                 -993.033      -999.679               
    34 r.38                   6.9675      -998.861               
    35 r.39                 -993.033      -999.679               
    36 r.40                   6.9675      -998.861               
    37 r.41                        2             2               
    38 r.42                       -2         -1001               
    39 r.43                   0.3208        0.3208               
    40 r.44                     1000             2               
    41 r.45                    -1000         -1001               
    42 r.46                     2000        1.1388               
    43 r.47                     1001             2               
    44 r.48                    -1001         -1001               
    45 r.49                  2000.32      -977.948               
    46 r.50                     1001             2               
    47 r.51                    -1001         -1001               
    48 r.52                     2000      -993.087               
    49 r.53                 -993.353      -993.353               
    50 r.54                   6.9675      -996.373               
    51 r.55                 -993.353      -993.353               
    52 r.56                   6.9675      -996.373               
    53 r.57                     1001             2               
    54 r.58                    -1001         -1001               
    55 r.59                     2000        0.3208               
    56 r.60                     1001             2               
    57 r.61                    -1001         -1001               
    58 r.62                     2000        1.1388               
    59 r.63                     1001             2               
    60 r.64                    -1001         -1001               
    61 r.65                  1999.68        6.6467               
    62 r.66                     1001             2               
    63 r.67                    -1001         -1001               
    64 r.68                     2000        3.6271               
    65 r.69                   6.9675      -977.948               
    66 r.70                 -993.033      -993.087               
    67 r.71                   6.9675      -977.948               
    68 r.72                 -993.033      -993.087               

   No. Column name       Activity     Lower bound   Upper bound
------ ------------    ------------- ------------- -------------
     1 tt                      7.085             0               
     2 s_1_1        *              1             0             1 
     3 t_1_1                       0             0               
     4 s_2_1        *              0             0             1 
     5 t_2_1                       0             0               
     6 s_1_2        *              1             0             1 
     7 t_1_2                  0.3208             0               
     8 s_2_2        *              0             0             1 
     9 t_2_2                       0             0               
    10 s_1_3        *              0             0             1 
    11 t_1_3                       0             0               
    12 s_2_3        *              1             0             1 
    13 t_2_3                       0             0               
    14 s_1_4        *              1             0             1 
    15 t_1_4                  6.9675             0               
    16 s_2_4        *              0             0             1 
    17 t_2_4                  6.9675             0               
    18 r_1_1_2      *              0             0             1 
    19 u_1_1_2      *              0             0             1 
    20 r_2_1_2      *              1             0             1 
    21 u_2_1_2      *              0             0             1 
    22 r_1_1_3      *              1             0             1 
    23 u_1_1_3      *              0             0             1 
    24 r_2_1_3      *              1             0             1 
    25 u_2_1_3      *              0             0             1 
    26 r_1_2_3      *              1             0             1 
    27 u_1_2_3      *              0             0             1 
    28 r_2_2_3      *              1             0             1 
    29 u_2_2_3      *              0             0             1 

Integer feasibility conditions:

KKT.PE: max.abs.err = 0.00e+00 on row 0
        max.rel.err = 0.00e+00 on row 0
        High quality

KKT.PB: max.abs.err = 0.00e+00 on row 0
        max.rel.err = 0.00e+00 on row 0
        High quality

End of output
